120 
300 
-0.5 0 0 0
0.5 0 0 -82
-7 -7 35 -11
-7 -5 -35 -136
-7 -3 -35 -78
-7 -1 35 -16
-7 1 35 -20
-7 3 -35 -76
-7 5 -35 -137
-7 7 -35 -75
-5 -7 35 -22
-5 -5 -25 -87
-5 -3 25 -24
-5 -1 -25 -112
-5 1 -25 -91
-5 3 -25 -71
-5 5 -25 -139
-5 7 35 -13
-3 -7 -35 -130
-3 -5 25 -21
-3 -3 15 -20
-3 -1 -15 -124
-3 1 -15 -112
-3 3 15 -13
-3 5 25 -19
-3 7 -35 -78
-1 -7 35 -23
-1 -5 -25 -112
-1 -3 15 -17
-1 -1 5 -19
-1 1 -5 -72
-1 3 -15 -97
-1 5 25 -17
-1 7 35 -16
1 -7 35 -10
1 -5 -25 -130
1 -3 -15 -81
1 -1 5 -28
1 1 -5 -122
1 3 -15 -135
1 5 25 -13
1 7 -35 -129
3 -7 35 -15
3 -5 25 -15
3 -3 15 -29
3 -1 -15 -107
3 1 -15 -68
3 3 -15 -102
3 5 -25 -93
3 7 35 -17
5 -7 35 -28
5 -5 -25 -108
5 -3 25 -21
5 -1 25 -17
5 1 -25 -130
5 3 -25 -77
5 5 -25 -121
5 7 -35 -75
7 -7 35 -10
7 -5 -35 -112
7 -3 35 -12
7 -1 35 -13
7 1 -35 -72
7 3 35 -23
7 5 -35 -116
7 7 35 -17
